(set-info :source |
 Generated by Alive 0.1
 More info in N. P. Lopes, D. Menendez, S. Nagarakatte, J. Regehr.
 Provably Correct Peephole Optimizations with Alive. In PLDI'15.
|)

(set-info :status unknown)
(declare-fun %X () (_ BitVec 29))
(declare-fun %Y () (_ BitVec 29))
(assert
 (let (($x370840 (= (bvmul (bvsdiv %X %Y) %Y) %X)))
 (let (($x128697 (and (distinct %X (_ bv268435456 29)) true)))
 (let (($x419610 (or $x128697 (and (distinct %Y (_ bv536870911 29)) true))))
 (let (($x380427 (and (distinct %Y (_ bv0 29)) true)))
 (and $x380427 $x419610 $x370840 false))))))
(check-sat)
